language ESSENCE' 1.0
letting AssignmentMatrix be [[0, 1, 1, 1, 0, 1, 1, 1, 1, 0, 0, 1, 0, 1, 1, 0, 0, 1, 0, 0, 0, 0, 0, 0, 1, 0], 
[0, 1, 1, 0, 1, 0, 0, 0, 0, 0, 1, 0, 0, 1, 0, 1, 0, 0, 0, 0, 0, 1, 0, 1, 0, 0], 
[0, 0, 0, 0, 0, 0, 0, 0, 0, 0, 0, 0, 0, 0, 0, 0, 0, 0, 0, 0, 0, 0, 0, 0, 0, 0], 
[0, 0, 0, 0, 0, 0, 0, 0, 0, 1, 0, 0, 0, 0, 0, 0, 1, 0, 0, 1, 0, 0, 1, 0, 0, 0], 
[0, 0, 0, 0, 0, 0, 1, 0, 1, 0, 0, 0, 0, 0, 0, 0, 0, 0, 0, 0, 0, 0, 0, 0, 0, 0]]
letting CPU be [5, 8, 4, 2, 2, 2, 8, 2, 8, 4, 2, 2, 55, 4, 2, 2, 4, 2, 31, 4, 63, 2, 4, 2, 2, 64]
letting Memory be [488003, 7000, 15000, 3750, 3750, 3750, 7000, 3750, 7000, 7500, 3750, 3750, 488002, 15000, 3750, 3750, 7500, 3750, 488002, 7500, 488002, 3750, 7500, 3750, 3750, 488002]
letting Price be [2, 520, 350, 116, 116, 116, 520, 116, 520, 210, 128, 116, 0, 350, 116, 116, 210, 116, 0, 210, 1, 116, 210, 116, 116, 0]
letting Storage be [12003, 4000, 4000, 2000, 2000, 2000, 4000, 2000, 4000, 2000, 2000, 2000, 12002, 4000, 2000, 2000, 2000, 2000, 12002, 2000, 12002, 2000, 2000, 2000, 2000, 12002]
letting VMType be [1, 187, 316, 433, 433, 433, 187, 433, 187, 341, 461, 433, 1, 316, 433, 433, 341, 433, 1, 341, 1, 433, 341, 433, 433, 1]
